100 8
800 598
408 512
235 648
559 327
39 310
84 780
137 273
342 700
160 301
204 359
621 532
378 481
554 632
106 479
230 557
516 585
550 401
621 550
966 871
448 629
270 763
348 631
167 506
234 712
262 924
834 690
483 182
300 607
734 430
453 604
125 381
889 982
756 585
355 358
238 426
381 252
464 36
279 870
219 747
238 301
729 826
392 445
593 163
63 526
799 511
84 496
560 126
634 435
200 980
553 190
258 478
184 617
128 760
308 556
682 303
340 522
127 856
167 373
437 627
351 380
500 351
207 487
622 125
191 880
235 359
481 725
228 330
785 575
698 542
221 354
932 820
216 352
732 816
433 611
46 215
671 779
679 257
598 154
758 851
697 692
539 356
138 380
348 738
458 172
231 298
337 526
837 809
275 216
434 657
456 625
630 37
358 555
298 615
411 685
498 252
198 648
528 44
104 348
171 675
638 195
